NAME: random-22-7153
TYPE: TSP
COMMENT: size=22 seed=7153
DIMENSION: 46
EDGE_WEIGHT_TYPE: EUC_2D
NODE_COORD_SECTION
+0 471 917
-0 471 917
+1 220 414
-1 840 149
+2 446 282
-2 599 640
+3 155 617
-3 857 123
+4 431 952
-4 446 370
+5 417 793
-5 313 236
+6 36 206
-6 68 515
+7 23 550
-7 224 934
+8 917 518
-8 475 340
+9 112 527
-9 651 2
+10 702 700
-10 786 372
+11 185 192
-11 738 707
+12 32 334
-12 299 610
+13 424 430
-13 61 393
+14 412 248
-14 649 8
+15 376 522
-15 626 218
+16 674 658
-16 240 521
+17 871 780
-17 687 784
+18 448 197
-18 862 208
+19 329 382
-19 816 34
+20 708 670
-20 126 825
+21 231 394
-21 963 176
+22 600 909
-22 568 242
PRECEDENCE_SECTION
+0 -0
+1 -1
+2 -2
+3 -3
+4 -4
+5 -5
+6 -6
+7 -7
+8 -8
+9 -9
+10 -10
+11 -11
+12 -12
+13 -13
+14 -14
+15 -15
+16 -16
+17 -17
+18 -18
+19 -19
+20 -20
+21 -21
+22 -22
EOF
